This is Ipopt version 3.10.0, running with linear solver ma27.

Number of nonzeros in equality constraint Jacobian...:        0
Number of nonzeros in inequality constraint Jacobian.:       48
Number of nonzeros in Lagrangian Hessian.............:        0

Total number of variables............................:        6
                     variables with only lower bounds:        3
                variables with lower and upper bounds:        3
                     variables with only upper bounds:        0
Total number of equality constraints.................:        0
Total number of inequality constraints...............:        8
        inequality constraints with only lower bounds:        0
   inequality constraints with lower and upper bounds:        0
        inequality constraints with only upper bounds:        8

iter    objective    inf_pr   inf_du lg(mu)  ||d||  lg(rg) alpha_du alpha_pr  ls
   0  3.8488217e+00 3.01e+00 1.26e+00   0.0 0.00e+00    -  0.00e+00 0.00e+00   0
   1  5.6539087e+00 1.02e+00 5.63e+00  -0.3 2.39e+00    -  5.99e-01 1.00e+00f  1
   2  6.5241482e+00 3.54e-01 1.94e+00  -0.3 1.06e+00    -  8.15e-01 8.82e-01h  1
   3  6.8371022e+00 2.44e-01 2.04e+00  -0.9 3.95e-01    -  9.30e-01 5.86e-01h  1
   4  6.3611081e+00 6.88e-01 1.98e+01  -1.5 8.16e-01    -  1.00e+00 9.43e-01H  1
   5  6.3461776e+00 3.57e-01 3.41e-01  -1.0 2.76e-01    -  1.00e+00 1.00e+00f  1
   6  6.6516591e+00 5.74e-02 1.30e+00  -1.1 3.62e-01    -  7.20e-01 8.68e-01h  1
   7  6.3368072e+00 4.37e-02 8.09e-01  -1.9 1.42e-01    -  9.97e-01 1.00e+00h  1
   8  6.2701905e+00 2.47e-02 2.09e+00  -2.0 2.33e-01    -  1.00e+00 4.43e-01h  1
   9  6.2263945e+00 1.47e-02 7.38e-01  -2.0 2.41e-01    -  1.00e+00 5.07e-01h  1
iter    objective    inf_pr   inf_du lg(mu)  ||d||  lg(rg) alpha_du alpha_pr  ls
  10  6.2106227e+00 8.80e-04 3.14e+00  -2.9 1.37e-02    -  1.00e+00 8.58e-01h  1
  11  6.2064811e+00 4.20e-04 5.72e-01  -4.1 7.85e-03    -  1.00e+00 9.75e-01h  1
  12  6.2028844e+00 3.36e-04 5.77e-01  -4.3 7.47e-03    -  1.00e+00 9.63e-01h  1
  13  6.1992600e+00 3.20e-03 2.19e-01  -5.4 2.95e-02    -  1.00e+00 1.00e+00h  1
  14  6.2086754e+00 0.00e+00 7.41e-02  -6.0 9.15e-03    -  1.00e+00 1.00e+00h  1
  15  6.2013301e+00 0.00e+00 5.19e-02  -6.1 4.22e-03    -  1.00e+00 1.00e+00h  1

Number of Iterations....: 15

                                   (scaled)                 (unscaled)
Objective...............:   6.2013300514807810e+00    6.2013300514807810e+00
Dual infeasibility......:   5.1935796340238691e-02    5.1935796340238691e-02
Constraint violation....:   0.0000000000000000e+00    0.0000000000000000e+00
Complementarity.........:   7.9811927950576653e-07    7.9811927950576653e-07
Overall NLP error.......:   5.1935796340238691e-02    5.1935796340238691e-02


Number of objective function evaluations             = 17
Number of objective gradient evaluations             = 16
Number of equality constraint evaluations            = 0
Number of inequality constraint evaluations          = 17
Number of equality constraint Jacobian evaluations   = 0
Number of inequality constraint Jacobian evaluations = 16
Number of Lagrangian Hessian evaluations             = 0
Total CPU secs in IPOPT (w/o function evaluations)   =      0.020
Total CPU secs in NLP function evaluations           =    162.989

EXIT: Stopping optimization at current point as requested by user.
